Aex=1
Msat=sqrt(2/mu0)
anisU = vector(1,0,0)
Ku1 = 0.1
SetGridSize(64,64,64)
m = (1, 0.1, 0)

Lmin := 8
Lmax := 9
Lstep := 0.05
tableadd(E_total)
tableaddvar(L, "L", "m")

For L := Lmin; L <= Lmax; L+= Lstep{
    SetCellSize(L/64,L/64,L/64)
    minimize()
    tablesave()
}
