Aex=1.0
Msat=sqrt(2/mu0)
anisU = vector(1,0,0)
Ku1 = 0.1
N := 64.0
Lmin := 8.0
Lmax := 9.0
Lstep := 0.05
tableadd(E_total)
L := Lmin
SetGridSize(N,N,N)

SetCellSize(L/N,L/N,L/N)
m = uniform(1, 0.1, 0)
tableaddvar(L, "L", "m")

for L = Lmin; L <= Lmax; L= L + Lstep{
    SetCellSize(L/N,L/N,L/N)
    minimize()
    tablesave()
}
