SetGridSize(100,100,1)
SetCellSize(1e-9,1e-9,1e-9)

real := imageShape("Square.png").scale(1, 1, 1).transl(20e-9, 20e-9, 0)

defregion(1, real)
m = uniform(0,0,0)
m.setregion(1, vortex(1,1))
relax()
save(m)

