SetGridSize(1725,1725,1)
SetCellSize(4.2e-9,4.2e-9,4.2e-9)
SetPBC(10,10,0)
real := imageShape("Square.png").scale(1, 1, 1)
setgeom(real)
defregion(1, real)
edgesmooth = 8
m = uniform(0,0,0)
m.setregion(1, uniform(1, 0.1,0))
relax()
save(m)

