Aex = 1
Msat = sqrt(2/mu0)
Ku1 = 0.1
anisU = vector(1, 0, 0)

N:= 64
setGridsize(N, N, N)
L:= 8.0
setcellsize(L/N, L/N, L/N)

Lmin := 8.0
Lmax := 9.0
Lstep := 0.05

m = uniform(1.0, 0.1, 0)

for L=Lmin; L <= Lmax; L += Lstep{
	setcellsize(L/N, L/N, L/N)
	minimize()
	tablesave()
}
