Aex = 1.3e-11
Msat = 8e5
SetGridSize(128, 32, 1)
lex := sqrt(2*1.3e-11/(mu0*(8e5 * 8e5)))
SetCellSize(500e-9/128, 125e-9/32, 3e-9)
alpha = 0.02
B_ext = vector(-24.6e-3, 4.3e-3, 0)
m = uniform(1, 0.1, 0)
relax()
save(m)

autosave(m, 200e-12)
tableautosave(10e-12)
run(1e-9)
